sat
(:max-memory                   18.52
 :memory                       18.52
 :nlsat-arith-var              3
 :nlsat-atoms                  10
 :nlsat-bool-var               1
 :nlsat-clauses                10
 :nlsat-irrational-assignments 1
 :nlsat-propagations           10
 :nlsat-stages                 4
 :num-allocs                   64355
 :rlimit-count                 2347
 :time                         0.00
 :total-time                   0.02)
